Version identifier: 20.1.0.0 | 2020-11-10 | 9bedb6d68
CPXPARAM_Threads                                 1
CPXPARAM_TimeLimit                               7200
CPXPARAM_MIP_Tolerances_MIPGap                   0
Generic callback                                 0x60
1 of 1 MIP starts provided solutions.
MIP start 'm1' defined initial solution with objective 3035.4203.
Tried aggregator 1 time.
Reduced MIP has 400801 rows, 400501 columns, and 1200500 nonzeros.
Reduced MIP has 500 binaries, 0 generals, 0 SOSs, and 0 indicators.
Presolve time = 0.39 sec. (381.28 ticks)
Probing time = 0.05 sec. (50.03 ticks)
Tried aggregator 1 time.
Reduced MIP has 400801 rows, 400501 columns, and 1200500 nonzeros.
Reduced MIP has 500 binaries, 0 generals, 0 SOSs, and 0 indicators.
Presolve time = 0.40 sec. (374.78 ticks)
Probing time = 0.05 sec. (50.03 ticks)
MIP emphasis: balance optimality and feasibility.
MIP search method: dynamic search.
Parallel mode: none, using 1 thread.
Root relaxation solution time = 0.13 sec. (154.45 ticks)

        Nodes                                         Cuts/
   Node  Left     Objective  IInf  Best Integer    Best Bound    ItCnt     Gap

*     0+    0                         3035.4203     4368.0000            43.90%
      0     0     3100.6345    12     3035.4203     4368.0000        0   43.90%
      0     0     3036.6614    29     3035.4203      Fract: 4       82    0.04%
      0     0     3036.6268    38     3035.4203      Fract: 4      288    0.04%
      0     2     3036.6268    38     3035.4203     3036.6211      288    0.04%
Elapsed time = 49.64 sec. (34673.14 ticks, tree = 0.01 MB, solutions = 1)
      1     3     3036.5396    21     3035.4203     3036.6098      471    0.04%
      2     4     3036.5372    22     3035.4203     3036.6098      516    0.04%
      3     5     3036.5257    19     3035.4203     3036.6098      613    0.04%
      4     6     3036.4719    22     3035.4203     3036.6098      788    0.04%
*     5     5      integral     0     3036.4839     3036.6098      797    0.00%
      5     3     3036.4839     0     3036.4839     3036.6098      797    0.00%
      6     4     3036.5363    25     3036.4839     3036.5330     1002    0.00%
      7     5     3036.4974    19     3036.4839     3036.5314     1061    0.00%
*     8     4      integral     0     3036.4871     3036.5314     1084    0.00%
      8     4     3036.4871     0     3036.4871     3036.5314     1084    0.00%
     10     4     3036.5066    18     3036.4871     3036.5259     1192    0.00%
*    14     2      integral     0     3036.4913     3036.5247     1255    0.00%
Elapsed time = 90.38 sec. (43158.61 ticks, tree = 0.15 MB, solutions = 4)
     16     0        cutoff           3036.4913     3036.4913     1469    0.00%

Gomory fractional cuts applied:  2
User cuts applied:  2

Root node processing (before b&c):
  Real time             =   49.61 sec. (34634.87 ticks)
Sequential b&c:
  Real time             =   47.75 sec. (10332.91 ticks)
                          ------------
Total (root+branch&cut) =   97.35 sec. (44967.78 ticks)
@Parameters: 
is_S_cut                                true
is_add_all_yinF                         true
is_start_value                          true
is_usercut                              true
is_visualization                        false
uc_only_rootnode                        false

data                                    Qi
fn                                      data/Qi/instance_800_500.csv
mode                                    ZLP
solver                                  cplex

p                                       50
r                                       5

EPS                                     1.0e-06
EPS_vio                                 1.0e-04
beta                                    0.10
gap                                     0.00
nodelimit                               Inf
timelimit                               7200.00


@PrintInfos
ItCnt: 1469
Current gap: 0.00 %
Termination Status: OPTIMAL
Primal Status: FEASIBLE_POINT
Solve Time: 97.35 sec
Objective Value: 3036.491334
Number of Nodes:     17

CutInfo: [phase] num / time (sec) 
ZLP             [phase1]     0 / 0.00 [rLC]     3 / 8.45 [rUC]     5 / 8.09 [sLC]     0 / 4.61 [sUC]     1 / 25.71 
OldSubmodular   [phase1]     0 / 0.00 [rLC]     0 / 0.00 [rUC]     0 / 0.00 [sLC]     0 / 0.00 [sUC]     0 / 0.00 
NewSubmodular   [phase1]     0 / 0.00 [rLC]     0 / 0.00 [rUC]     0 / 0.00 [sLC]     0 / 0.00 [sUC]     0 / 0.00 
PMP             [phase1]     0 / 0.00 [rLC]     4 / 5.61 [rUC]     5 / 5.52 [sLC]     3 / 3.49 [sUC]    17 / 19.95 
Separation Round: [phase1] 0  [rLC] 4  [rUC] 5  [sLC] 3  [sUC] 17
Root Best Bound 3036.609792
Root Best Integer: 3035.420267
Best Bound: 3036.491334
Best Integer: 3036.491334

